#N HF/STO-3G SCAN NOSYMMETRY Geom=Connectivity 

C4H8Cl2 SM 3

0 1
C 
C 1 B1
C 2 B2 1 A1
C 3 B3 2 A2 1 D1
H 4 B4 3 A3 2 D2
H 4 B5 3 A4 2 D3
H 4 B6 3 A5 2 D4
H 1 B7 2 A6 3 D5
H 1 B8 2 A7 3 D6
H 1 B9 2 A8 3 D7
Cl 2 B10 1 A9 8 D8
Cl 3 B11 4 A10 5 D9
H 2 B12 1 A11 8 D10
H 3 B13 4 A12 5 D11

B1 1.536325182
B2 1.547425778
B3 1.535827595
B4 1.113685113
B5 1.113239558
B6 1.114868476
B7 1.114938350
B8 1.114202138
B9 1.113561184
B10 1.807681394
B11 1.808939958
B12 1.116836523
B13 1.116252538
A1 112.8988556
A2 115.0307499
A3 112.0807511
A4 111.4990207
A5 111.3275922
A6 111.4380921
A7 110.8597840
A8 112.1760899
A9 109.1960697
A10 109.4349586
A11 107.7638156
A12 108.2318064
D1 0.000000000 12 30.0000
D2 -61.65219461
D3 59.20674057
D4 177.9485300
D5 -173.2247977
D6 -54.04092366
D7 66.41258115
D8 60.72342838
D9 64.23250744
D10 -52.98163846
D11 177.4154529

1 2 1 8 1 9 1 10 1
2 1 1 3 1 11 1 13 1
3 2 1 4 1 12 1 14 1
4 3 1 5 1 6 1 7 1
5 4 1
6 4 1
7 4 1
8 1 1
9 1 1
10 1 1
11 2 1
12 3 1
13 2 1
14 3 1


